root_relax = 602.26
QCR_time = 10.0318
opt = true
obj_val = 602.0
solved_time = 0.1296
explored_nodes = 114
nb_dom_cuts = 1156
robi/QCR_QP_Dom/bcc13285.txt"
Set parameter Presolve to value 0
Set parameter AggFill to value -1
Set parameter Aggregate to value 0
Set parameter Heuristics to value 0
Set parameter LPWarmStart to value 0
Set parameter NLPHeur to value 0
Set parameter NoRelHeurTime to value 0
Set parameter PreCrush to value 0
Set parameter PreDepRow to value 0
Set parameter PreDual to value 0
Set parameter PrePasses to value -1
Set parameter RINS to value 0
Set parameter Symmetry to value 0
Set parameter PreQLinearize to value 0
Set parameter NonConvex to value 0

Gurobi 12.0.0 (linux64) logging started Sun Jan 12 01:45:09 2025

Set parameter LogFile to value "./res/Gurobi/QCR_QP_Dom/bcc13285.txt"
Set parameter PreCrush to value 0
Set parameter PrePasses to value -1
Set parameter AggFill to value -1
Set parameter NoRelHeurTime to value 0
Set parameter NLPHeur to value 0
Set parameter NonConvex to value 0
Set parameter LPWarmStart to value 0
Set parameter PreDepRow to value 0
Set parameter Symmetry to value 0
Set parameter Presolve to value 0
Gurobi Optimizer version 12.0.0 build v12.0.0rc1 (linux64 - "Debian GNU/Linux 12 (bookworm)")

CPU model: Intel(R) Xeon(R) Silver 4210R CPU @ 2.40GHz, instruction set [SSE2|AVX|AVX2|AVX512]
Thread count: 1 physical cores, 2 logical processors, using up to 2 threads

Non-default parameters:
TimeLimit  1800
LPWarmStart  0
Heuristics  0
RINS  0
NLPHeur  0
Symmetry  0
Aggregate  0
PreDual  0
NonConvex  0
PreDepRow  0
PreQLinearize  0
Presolve  0

Optimize a model with 1156 rows, 63 columns and 23884 nonzeros
Model fingerprint: 0x960b5469
Model has 1042 quadratic objective terms
Variable types: 0 continuous, 63 integer (63 binary)
Coefficient statistics:
  Matrix range     [1e+00, 1e+00]
  Objective range  [6e+00, 8e+01]
  QObjective range [2e+00, 4e+01]
  Bounds range     [0e+00, 0e+00]
  RHS range        [1e+00, 3e+01]
Variable types: 0 continuous, 63 integer (63 binary)

Root relaxation: objective -6.022609e+02, 127 iterations, 0.01 seconds (0.01 work units)

    Nodes    |    Current Node    |     Objective Bounds      |     Work
 Expl Unexpl |  Obj  Depth IntInf | Incumbent    BestBd   Gap | It/Node Time

     0     0 -602.26093    0   63          - -602.26093      -     -    0s
     0     0 -602.26077    0   63          - -602.26077      -     -    0s
     0     2 -602.26077    0   63          - -602.26077      -     -    0s
*   35    11              34    -602.0000000 -602.26077  0.04%   5.5    0s

Explored 114 nodes (833 simplex iterations) in 0.13 seconds (0.16 work units)
Thread count was 2 (of 2 available processors)

Solution count 1: -602 
No other solutions better than -602

Optimal solution found (tolerance 1.00e-04)
Best objective -6.020000000000e+02, best bound -6.020000000000e+02, gap 0.0000%

User-callback calls 348, time in user-callback 0.00 sec
